
&control
    prefix        = 'borophene',
    calculation   = 'scf',
    pseudo_dir    = '../../pseudo',
    outdir        = '../../outdir'
 /
 &system
    ibrav         = 4,
    celldm(1)     = 9.5,
    celldm(3)     = 2.0,
    nat           = 8,
    ntyp          = 1,
    ecutwfc       = 80,
    occupations= 'smearing',
    smearing   = 'marzari-vanderbilt',
    degauss    = 0.02
 /
 &electrons
 /
ATOMIC_SPECIES
 B  10.811  B.pbesol-n-rrkjus_psl.1.0.0.UPF
ATOMIC_POSITIONS crystal
B 0.333333 0.000000 0.000000
B 0.666667 0.000000 0.000000
B 0.000000 0.333333 0.000000
B 0.333333 0.333333 0.000000
B 0.666667 0.333333 0.000000
B 0.000000 0.666667 0.000000
B 0.333333 0.666667 0.000000
B 0.666667 0.666667 0.000000
K_POINTS automatic
 6 6 1 0 0 0          
