&control
 prefix = 'borophene'
 calculation = 'scf'
/

&system
 ibrav = 4
 celldm(1) = 18.074
 celldm(3) = 2.3304
 nat = 74
 ntyp = 2
/

&electrons
/

ATOMIC_SPECIES
 B  10.811  B.pbesol-n-rrkjus_psl.1.0.0.UPF
 Re 186.207 re_pbesol_v1.2.uspp.F.UPF

ATOMIC_POSITIONS (crystal)
Re            0.1666670000        0.0000000000        0.0000000000    0   0   0
Re            0.6666670000        0.0000000000        0.0000000000    0   0   0
Re            0.0000000000        0.1666670000        0.0000000000    0   0   0
Re            0.5000000000        0.1666670000        0.0000000000    0   0   0
Re            0.3333330000        0.3333330000        0.0000000000    0   0   0
Re            0.8333330000        0.3333330000        0.0000000000    0   0   0
Re            0.1666670000        0.5000000000        0.0000000000    0   0   0
Re            0.6666670000        0.5000000000        0.0000000000    0   0   0
Re            0.0000000000        0.6666670000        0.0000000000    0   0   0
Re            0.5000000000        0.6666670000        0.0000000000    0   0   0
Re            0.3333330000        0.8333330000        0.0000000000    0   0   0
Re            0.8333330000        0.8333330000        0.0000000000    0   0   0
Re            0.0000000000        0.0000000000        0.1000000000    0   0   0
Re            0.5000000000        0.0000000000        0.1000000000    0   0   0
Re            0.3333330000        0.1666670000        0.1000000000    0   0   0
Re            0.8333330000        0.1666670000        0.1000000000    0   0   0
Re            0.1666670000        0.3333330000        0.1000000000    0   0   0
Re            0.6666670000        0.3333330000        0.1000000000    0   0   0
Re            0.0000000000        0.5000000000        0.1000000000    0   0   0
Re            0.5000000000        0.5000000000        0.1000000000    0   0   0
Re            0.3333330000        0.6666670000        0.1000000000    0   0   0
Re            0.8333330000        0.6666670000        0.1000000000    0   0   0
Re            0.1666670000        0.8333330000        0.1000000000    0   0   0
Re            0.6666670000        0.8333330000        0.1000000000    0   0   0
Re            0.1709163793        0.0026805737        0.2005834596
Re            0.6654599935       -0.0031001635        0.1991766998
Re            0.0031001635        0.1685601570        0.1991766998
Re            0.4993839608        0.1686149643        0.2004377971
Re            0.3371619557        0.3365356287        0.2033196228
Re            0.8314398430        0.3345400065        0.1991766998
Re            0.1692310035        0.5006160392        0.2004377971
Re            0.6634643713        0.5006263270        0.2033196228
Re           -0.0026805737        0.6682358056        0.2005834596
Re            0.4993736730        0.6628380443        0.2033196228
Re            0.3317641944        0.8290836207        0.2005834596
Re            0.8313850357        0.8307689965        0.2004377971
Re           -0.0010903808       -0.0038640932        0.2911701686
Re            0.4972262876        0.0010903808        0.2911701686
Re            0.3349688371        0.1740897424        0.3056021610
Re            0.8333330000        0.1666670000        0.2882622149
Re            0.1730506560        0.3359829395        0.3014512139
Re            0.6640170605        0.3370667165        0.3014512139
Re            0.0038640932        0.5027737124        0.2911701686
Re            0.5000000000        0.5000000000        0.3077324539
Re            0.3391199053        0.6650311629        0.3056021610
Re            0.8259102576        0.6608800947        0.3056021610
Re            0.1666670000        0.8333330000        0.2917795549
Re            0.6629332835        0.8269493440        0.3014512139
B            -0.0028678793        0.0015226313        0.4018366986
B             0.1642437585        0.0065753514        0.3730131927
B             0.3417509532        0.0148423776        0.3773526848
B             0.5043905106        0.0028678793        0.4018366986
B             0.6604222355       -0.0041746693        0.3685446718
B             0.8304728269       -0.0079903063        0.3711674743
B             0.0041746693        0.1645969048        0.3685446718
B             0.1910466478        0.1963549992        0.3919379939
B             0.5079336932        0.2055406323        0.3886304686
B             0.6615368668        0.1695271731        0.3711674743
B             0.8333330000        0.1666670000        0.3923609402
B             0.0079903063        0.3384631332        0.3711674743
B             0.3202075841        0.4017583300        0.3896235444
B             0.5982416700        0.4184482541        0.3896235444
B             0.8354030952        0.3395777645        0.3685446718
B            -0.0015226313        0.4956094894        0.4018366986
B             0.1976069391        0.4920663068        0.3886304686
B             0.8036450008        0.4946916487        0.3919379939
B            -0.0065753514        0.6576684071        0.3730131927
B             0.1730914244        0.6582490468        0.3773526848
B            -0.0148423776        0.8269085756        0.3773526848
B             0.1666670000        0.8333330000        0.3961883494
B             0.3423315929        0.8357562415        0.3730131927
B             0.5053083513        0.8089533522        0.3919379939
B             0.5815517459        0.6797924159        0.3896235444
B             0.7944593677        0.8023930609        0.3886304686
