&control
 prefix = 'borophene'
 calculation = 'scf'
/

&system
 ibrav = 4
 celldm(1) = 18.074
 celldm(3) = 2.3304
 nat = 74
 ntyp = 2
/

&electrons
/

ATOMIC_SPECIES
 B  10.811  B.pbesol-n-rrkjus_psl.1.0.0.UPF
 Re 186.207 re_pbesol_v1.2.uspp.F.UPF

ATOMIC_POSITIONS (crystal)
Re            0.0000000000        0.0000000000        0.0000000000    0   0   0
Re            0.5000000000        0.0000000000        0.0000000000    0   0   0
Re            0.3333330000        0.1666670000        0.0000000000    0   0   0
Re            0.8333330000        0.1666670000        0.0000000000    0   0   0
Re            0.1666670000        0.3333330000        0.0000000000    0   0   0
Re            0.6666670000        0.3333330000        0.0000000000    0   0   0
Re            0.0000000000        0.5000000000        0.0000000000    0   0   0
Re            0.5000000000        0.5000000000        0.0000000000    0   0   0
Re            0.3333330000        0.6666670000        0.0000000000    0   0   0
Re            0.8333330000        0.6666670000        0.0000000000    0   0   0
Re            0.1666670000        0.8333330000        0.0000000000    0   0   0
Re            0.6666670000        0.8333330000        0.0000000000    0   0   0
Re            0.1666670000        0.0000000000        0.1000000000    0   0   0
Re            0.6666670000        0.0000000000        0.1000000000    0   0   0
Re            0.0000000000        0.1666670000        0.1000000000    0   0   0
Re            0.5000000000        0.1666670000        0.1000000000    0   0   0
Re            0.3333330000        0.3333330000        0.1000000000    0   0   0
Re            0.8333330000        0.3333330000        0.1000000000    0   0   0
Re            0.1666670000        0.5000000000        0.1000000000    0   0   0
Re            0.6666670000        0.5000000000        0.1000000000    0   0   0
Re            0.0000000000        0.6666670000        0.1000000000    0   0   0
Re            0.5000000000        0.6666670000        0.1000000000    0   0   0
Re            0.3333330000        0.8333330000        0.1000000000    0   0   0
Re            0.8333330000        0.8333330000        0.1000000000    0   0   0
Re           -0.0015294173       -0.0025976512        0.2007186770
Re            0.4989317661        0.0015294173        0.2007186770
Re            0.3334211093        0.1664820227        0.2019564570
Re            0.8333330000        0.1666670000        0.1994680330
Re            0.1687253438        0.3357240197        0.2018549711
Re            0.6642759803        0.3330003241        0.2018549711
Re            0.0025976512        0.5010682339        0.2007186770
Re            0.5000000000        0.5000000000        0.1980931804
Re            0.3330599134        0.6665788907        0.2019564570
Re            0.8335179773        0.6669400866        0.2019564570
Re            0.1666670000        0.8333330000        0.2000039335
Re            0.6669996759        0.8312746562        0.2018549711
Re            0.1665785198        0.0006455480        0.2972273326
Re            0.6654439627        0.0010323656        0.2953658338
Re           -0.0010323656        0.1644115971        0.2953658338
Re            0.4983495014        0.1695381016        0.2986393602
Re            0.3363719236        0.3357829384        0.2964221414
Re            0.8355884029        0.3345560373        0.2953658338
Re            0.1711886001        0.5016504986        0.2986393602
Re            0.6642170616        0.5005889852        0.2964221414
Re           -0.0006455480        0.6659329718        0.2972273326
Re            0.4994110148        0.6636280764        0.2964221414
Re            0.3340670282        0.8334214802        0.2972273326
Re            0.8304618984        0.8288113999        0.2986393602
B            -0.0134181410       -0.0147643300        0.3763744149
B             0.1620364062       -0.0001725906        0.4051389883
B             0.3371350032        0.0123845328        0.4175671796
B             0.4986538110        0.0134181410        0.3763744149
B             0.6668677588        0.0042749303        0.4005549536
B             0.8217020873       -0.0180970904        0.4209481926
B            -0.0042749303        0.1625928285        0.4005549536
B             0.1766233848        0.1673529730        0.3712700103
B             0.4950252348        0.1850584200        0.4011169412
B             0.6602008223        0.1782979127        0.4209481926
B             0.8333330000        0.1666670000        0.3631304265
B             0.0180970904        0.3397991777        0.4209481926
B             0.1850955311        0.3444873295        0.3742627660
B             0.6555126705        0.3406072016        0.3742627660
B             0.8374071715        0.3331322412        0.4005549536
B             0.0147643300        0.5013461890        0.3763744149
B             0.1900331852        0.5049747652        0.4011169412
B             0.8326470270        0.5092704118        0.3712700103
B             0.0001725906        0.6622089968        0.4051389883
B             0.1752495296        0.6628649968        0.4175671796
B            -0.0123845328        0.8247504704        0.4175671796
B             0.1666670000        0.8333330000        0.3703406155
B             0.3377910032        0.8379635938        0.4051389883
B             0.4907295882        0.8233766152        0.3712700103
B             0.6593927984        0.8149044689        0.3742627660
B             0.8149415800        0.8099668148        0.4011169412
