&control
 prefix = 'borophene'
 calculation = 'scf'
/

&system
 ibrav = 4
 celldm(1) = 18.074
 celldm(3) = 2.3304
 nat = 77
 ntyp = 2
/

&electrons
/

ATOMIC_SPECIES
 B  10.811  B.pbesol-n-rrkjus_psl.1.0.0.UPF
 Re 186.207 re_pbesol_v1.2.uspp.F.UPF

ATOMIC_POSITIONS (crystal)
Re            0.0000000000        0.0000000000        0.0000000000    0   0   0
Re            0.5000000000        0.0000000000        0.0000000000    0   0   0
Re            0.3333330000        0.1666670000        0.0000000000    0   0   0
Re            0.8333330000        0.1666670000        0.0000000000    0   0   0
Re            0.1666670000        0.3333330000        0.0000000000    0   0   0
Re            0.6666670000        0.3333330000        0.0000000000    0   0   0
Re            0.0000000000        0.5000000000        0.0000000000    0   0   0
Re            0.5000000000        0.5000000000        0.0000000000    0   0   0
Re            0.3333330000        0.6666670000        0.0000000000    0   0   0
Re            0.8333330000        0.6666670000        0.0000000000    0   0   0
Re            0.1666670000        0.8333330000        0.0000000000    0   0   0
Re            0.6666670000        0.8333330000        0.0000000000    0   0   0
Re            0.1666670000        0.0000000000        0.1000000000    0   0   0
Re            0.6666670000        0.0000000000        0.1000000000    0   0   0
Re            0.0000000000        0.1666670000        0.1000000000    0   0   0
Re            0.5000000000        0.1666670000        0.1000000000    0   0   0
Re            0.3333330000        0.3333330000        0.1000000000    0   0   0
Re            0.8333330000        0.3333330000        0.1000000000    0   0   0
Re            0.1666670000        0.5000000000        0.1000000000    0   0   0
Re            0.6666670000        0.5000000000        0.1000000000    0   0   0
Re            0.0000000000        0.6666670000        0.1000000000    0   0   0
Re            0.5000000000        0.6666670000        0.1000000000    0   0   0
Re            0.3333330000        0.8333330000        0.1000000000    0   0   0
Re            0.8333330000        0.8333330000        0.1000000000    0   0   0
Re           -0.0033988457       -0.0033988457        0.2001515586
Re            0.5000000000        0.0033988457        0.2001515586
Re            0.3334207179        0.1691926572        0.2019349214
Re            0.8333330000        0.1666670000        0.2000577238
Re            0.1691926572        0.3334207179        0.2019349214
Re            0.6665792821        0.3357709393        0.2019349214
Re            0.0033988457        0.5000000000        0.2001515586
Re            0.5000000000        0.5000000000        0.1993093296
Re            0.3357709393        0.6665792821        0.2019349214
Re            0.8308073428        0.6642290607        0.2019349214
Re            0.1666670000        0.8333330000        0.2000577238
Re            0.6642290607        0.8308073428        0.2019349214
Re            0.1675577894       -0.0002826175        0.2952122212
Re            0.6678404069        0.0002826175        0.2952122212
Re           -0.0002826175        0.1675577894        0.2952122212
Re            0.5000000000        0.1666741554        0.2963682948
Re            0.3389665954        0.3389665954        0.3022883998
Re            0.8324422106        0.3321595931        0.2952122212
Re            0.1666741554        0.5000000000        0.2963682948
Re            0.6610334046        0.5000000000        0.3022883998
Re            0.0002826175        0.6678404069        0.2952122212
Re            0.5000000000        0.6610334046        0.3022883998
Re            0.3321595931        0.8324422106        0.2952122212
Re            0.8333258446        0.8333258446        0.2963682948
B            -0.0101275020       -0.0101275020        0.3730989226
B             0.1656395217       -0.0028977237        0.4033107585
B             0.3386293418        0.0062166575        0.4259356840
B             0.5000000000        0.0101275020        0.3730989226
B             0.6685372454        0.0028977237        0.4033107585
B             0.8324126842       -0.0062166575        0.4259356840
B            -0.0028977237        0.1656395217        0.4033107585
B             0.1737393180        0.1737393180        0.3762814767
B             0.3424653543        0.1657537343        0.3729574308
B             0.5000000000        0.1781509542        0.4083725723
B             0.6613706582        0.1675873158        0.4259356840
B             0.8333330000        0.1666670000        0.3638589098
B             0.0062166575        0.3386293418        0.4259356840
B             0.1657537343        0.3424653543        0.3729574308
B             0.6575346457        0.3232873800        0.3729574308
B             0.8343604783        0.3314627546        0.4033107585
B             0.0101275020        0.5000000000        0.3730989226
B             0.1781509542        0.5000000000        0.4083725723
B             0.8262606820        0.5000000000        0.3762814767
B             0.0028977237        0.6685372454        0.4033107585
B             0.1675873158        0.6613706582        0.4259356840
B             0.3232873800        0.6575346457        0.3729574308
B             0.8342462657        0.6767126200        0.3729574308
B            -0.0062166575        0.8324126842        0.4259356840
B             0.1666670000        0.8333330000        0.3638589098
B             0.3314627546        0.8343604783        0.4033107585
B             0.5000000000        0.8262606820        0.3762814767
B             0.6767126200        0.8342462657        0.3729574308
B             0.8218490458        0.8218490458        0.4083725723
