&control
 prefix = 'borophene'
 calculation = 'scf'
/

&system
 ibrav = 4
 celldm(1) = 18.074
 celldm(3) = 2.3304
 nat = 77
 ntyp = 2
/

&electrons
/

ATOMIC_SPECIES
 B  10.811  B.pbesol-n-rrkjus_psl.1.0.0.UPF
 Re 186.207 re_pbesol_v1.2.uspp.F.UPF

ATOMIC_POSITIONS (crystal)
Re            0.1666670000        0.0000000000        0.0000000000    0   0   0
Re            0.6666670000        0.0000000000        0.0000000000    0   0   0
Re            0.0000000000        0.1666670000        0.0000000000    0   0   0
Re            0.5000000000        0.1666670000        0.0000000000    0   0   0
Re            0.3333330000        0.3333330000        0.0000000000    0   0   0
Re            0.8333330000        0.3333330000        0.0000000000    0   0   0
Re            0.1666670000        0.5000000000        0.0000000000    0   0   0
Re            0.6666670000        0.5000000000        0.0000000000    0   0   0
Re            0.0000000000        0.6666670000        0.0000000000    0   0   0
Re            0.5000000000        0.6666670000        0.0000000000    0   0   0
Re            0.3333330000        0.8333330000        0.0000000000    0   0   0
Re            0.8333330000        0.8333330000        0.0000000000    0   0   0
Re            0.0000000000        0.0000000000        0.1000000000    0   0   0
Re            0.5000000000        0.0000000000        0.1000000000    0   0   0
Re            0.3333330000        0.1666670000        0.1000000000    0   0   0
Re            0.8333330000        0.1666670000        0.1000000000    0   0   0
Re            0.1666670000        0.3333330000        0.1000000000    0   0   0
Re            0.6666670000        0.3333330000        0.1000000000    0   0   0
Re            0.0000000000        0.5000000000        0.1000000000    0   0   0
Re            0.5000000000        0.5000000000        0.1000000000    0   0   0
Re            0.3333330000        0.6666670000        0.1000000000    0   0   0
Re            0.8333330000        0.6666670000        0.1000000000    0   0   0
Re            0.1666670000        0.8333330000        0.1000000000    0   0   0
Re            0.6666670000        0.8333330000        0.1000000000    0   0   0
Re            0.1694906157        0.0002418293        0.2011025805
Re            0.6692487864       -0.0002418293        0.2011025805
Re            0.0002418293        0.1694906157        0.2011025805
Re            0.5000000000        0.1656162464        0.2010465830
Re            0.3332293428        0.3332293428        0.2002538234
Re            0.8305093843        0.3307512136        0.2011025805
Re            0.1656162464        0.5000000000        0.2010465830
Re            0.6667706572        0.5000000000        0.2002538234
Re           -0.0002418293        0.6692487864        0.2011025805
Re            0.5000000000        0.6667706572        0.2002538234
Re            0.3307512136        0.8305093843        0.2011025805
Re            0.8343837536        0.8343837536        0.2010465830
Re            0.0036865967        0.0036865967        0.2926298724
Re            0.5000000000       -0.0036865967        0.2926298724
Re            0.3338602983        0.1709330769        0.2991652564
Re            0.8333330000        0.1666670000        0.2971264871
Re            0.1709330769        0.3338602983        0.2991652564
Re            0.6661397017        0.3370717786        0.2991652564
Re           -0.0036865967        0.5000000000        0.2926298724
Re            0.5000000000        0.5000000000        0.2902016004
Re            0.3370717786        0.6661397017        0.2991652564
Re            0.8290669231        0.6629282214        0.2991652564
Re            0.1666670000        0.8333330000        0.2971264871
Re            0.6629282214        0.8290669231        0.2991652564
B             0.0213642298        0.0213642298        0.4031692511
B             0.1888679322        0.0160632889        0.3768156393
B             0.3447518791        0.0056939051        0.4228228423
B             0.5000000000       -0.0213642298        0.4031692511
B             0.6728046433       -0.0160632889        0.3768156393
B             0.8390579740       -0.0056939051        0.4228228423
B             0.0160632889        0.1888679322        0.3768156393
B             0.2302099806        0.2302099806        0.3881477187
B             0.3839425368        0.1971441119        0.4077416918
B             0.5000000000        0.1476866197        0.3643442581
B             0.6552481209        0.1609420260        0.4228228423
B             0.8333330000        0.1666670000        0.4073570406
B             0.0056939051        0.3447518791        0.4228228423
B             0.1971441119        0.3839425368        0.4077416918
B             0.6160574632        0.3132005751        0.4077416918
B             0.8111320678        0.3271953567        0.3768156393
B            -0.0213642298        0.5000000000        0.4031692511
B             0.1476866197        0.5000000000        0.3643442581
B             0.7697900194        0.5000000000        0.3881477187
B            -0.0160632889        0.6728046433        0.3768156393
B             0.1609420260        0.6552481209        0.4228228423
B             0.3132005751        0.6160574632        0.4077416918
B             0.8028558881        0.6867994249        0.4077416918
B            -0.0056939051        0.8390579740        0.4228228423
B             0.1666670000        0.8333330000        0.4073570406
B             0.3271953567        0.8111320678        0.3768156393
B             0.5000000000        0.7697900194        0.3881477187
B             0.6867994249        0.8028558881        0.4077416918
B             0.8523133803        0.8523133803        0.3643442581
