&control
 prefix = 'borophene'
 calculation = 'scf'
/

&system
 ibrav = 4
 celldm(1) = 18.074
 celldm(3) = 2.3304
 nat = 81
 ntyp = 2
/

&electrons
/

ATOMIC_SPECIES
 B  10.811  B.pbesol-n-rrkjus_psl.1.0.0.UPF
 Re 186.207 re_pbesol_v1.2.uspp.F.UPF
 
 ATOMIC_POSITIONS crystal
Re 0.000000 0.000000 0.000000 0 0 0
Re 0.500000 0.000000 0.000000 0 0 0
Re 0.333333 0.166667 0.000000 0 0 0
Re 0.833333 0.166667 0.000000 0 0 0
Re 0.166667 0.333333 0.000000 0 0 0
Re 0.666667 0.333333 0.000000 0 0 0
Re 0.000000 0.500000 0.000000 0 0 0
Re 0.500000 0.500000 0.000000 0 0 0
Re 0.333333 0.666667 0.000000 0 0 0
Re 0.833333 0.666667 0.000000 0 0 0
Re 0.166667 0.833333 0.000000 0 0 0
Re 0.666667 0.833333 0.000000 0 0 0
Re 0.166667 0.000000 0.100000 0 0 0
Re 0.666667 0.000000 0.100000 0 0 0
Re 0.000000 0.166667 0.100000 0 0 0
Re 0.500000 0.166667 0.100000 0 0 0
Re 0.333333 0.333333 0.100000 0 0 0
Re 0.833333 0.333333 0.100000 0 0 0
Re 0.166667 0.500000 0.100000 0 0 0
Re 0.666667 0.500000 0.100000 0 0 0
Re 0.000000 0.666667 0.100000 0 0 0
Re 0.500000 0.666667 0.100000 0 0 0
Re 0.333333 0.833333 0.100000 0 0 0
Re 0.833333 0.833333 0.100000 0 0 0
Re 0.000000 0.000000 0.200000
Re 0.500000 0.000000 0.200000
Re 0.333333 0.166667 0.200000
Re 0.833333 0.166667 0.200000
Re 0.166667 0.333333 0.200000
Re 0.666667 0.333333 0.200000
Re 0.000000 0.500000 0.200000
Re 0.500000 0.500000 0.200000
Re 0.333333 0.666667 0.200000
Re 0.833333 0.666667 0.200000
Re 0.166667 0.833333 0.200000
Re 0.666667 0.833333 0.200000
Re 0.166667 0.000000 0.300000
Re 0.666667 0.000000 0.300000
Re 0.000000 0.166667 0.300000
Re 0.500000 0.166667 0.300000
Re 0.333333 0.333333 0.300000
Re 0.833333 0.333333 0.300000
Re 0.166667 0.500000 0.300000
Re 0.666667 0.500000 0.300000
Re 0.000000 0.666667 0.300000
Re 0.500000 0.666667 0.300000
Re 0.333333 0.833333 0.300000
Re 0.833333 0.833333 0.300000
B 0.000000 0.000000 0.400000
B 0.166667 0.000000 0.400000
B 0.333333 0.000000 0.400000
B 0.500000 0.000000 0.400000
B 0.666667 0.000000 0.400000
B 0.833333 0.000000 0.400000
B 0.000000 0.166667 0.400000
B 0.166667 0.166667 0.400000
B 0.333333 0.166667 0.400000
B 0.500000 0.166667 0.400000
B 0.666667 0.166667 0.400000
B 0.833333 0.166667 0.400000
B 0.000000 0.333333 0.400000
B 0.166667 0.333333 0.400000
B 0.500000 0.333333 0.400000
B 0.666667 0.333333 0.400000
B 0.833333 0.333333 0.400000
B 0.000000 0.500000 0.400000
B 0.166667 0.500000 0.400000
B 0.333333 0.500000 0.400000
B 0.666667 0.500000 0.400000
B 0.833333 0.500000 0.400000
B 0.000000 0.666667 0.400000
B 0.166667 0.666667 0.400000
B 0.333333 0.666667 0.400000
B 0.500000 0.666667 0.400000
B 0.833333 0.666667 0.400000
B 0.000000 0.833333 0.400000
B 0.166667 0.833333 0.400000
B 0.333333 0.833333 0.400000
B 0.500000 0.833333 0.400000
B 0.666667 0.833333 0.400000
B 0.833333 0.833333 0.400000




