&control
 prefix = 'borophene'
 calculation = 'scf'
/

&system
 ibrav = 4
 celldm(1) = 18.074
 celldm(3) = 2.3304
 nat = 81
 ntyp = 2
/

&electrons
/

ATOMIC_SPECIES
 B  10.811  B.pbesol-n-rrkjus_psl.1.0.0.UPF
 Re 186.207 re_pbesol_v1.2.uspp.F.UPF

ATOMIC_POSITIONS (crystal)
Re            0.1666670000        0.0000000000        0.0000000000    0   0   0
Re            0.6666670000        0.0000000000        0.0000000000    0   0   0
Re            0.0000000000        0.1666670000        0.0000000000    0   0   0
Re            0.5000000000        0.1666670000        0.0000000000    0   0   0
Re            0.3333330000        0.3333330000        0.0000000000    0   0   0
Re            0.8333330000        0.3333330000        0.0000000000    0   0   0
Re            0.1666670000        0.5000000000        0.0000000000    0   0   0
Re            0.6666670000        0.5000000000        0.0000000000    0   0   0
Re            0.0000000000        0.6666670000        0.0000000000    0   0   0
Re            0.5000000000        0.6666670000        0.0000000000    0   0   0
Re            0.3333330000        0.8333330000        0.0000000000    0   0   0
Re            0.8333330000        0.8333330000        0.0000000000    0   0   0
Re            0.0000000000        0.0000000000        0.1000000000    0   0   0
Re            0.5000000000        0.0000000000        0.1000000000    0   0   0
Re            0.3333330000        0.1666670000        0.1000000000    0   0   0
Re            0.8333330000        0.1666670000        0.1000000000    0   0   0
Re            0.1666670000        0.3333330000        0.1000000000    0   0   0
Re            0.6666670000        0.3333330000        0.1000000000    0   0   0
Re            0.0000000000        0.5000000000        0.1000000000    0   0   0
Re            0.5000000000        0.5000000000        0.1000000000    0   0   0
Re            0.3333330000        0.6666670000        0.1000000000    0   0   0
Re            0.8333330000        0.6666670000        0.1000000000    0   0   0
Re            0.1666670000        0.8333330000        0.1000000000    0   0   0
Re            0.6666670000        0.8333330000        0.1000000000    0   0   0
Re            0.1661261359       -0.0010833014        0.2003566196
Re            0.6667090543       -0.0006577139        0.2006482330
Re           -0.0010833014        0.1661261359        0.2003566196
Re            0.4987408748        0.1649851336        0.1998898408
Re            0.3333608858        0.3333608858        0.2029477448
Re            0.8318549938        0.3314780837        0.2010264195
Re            0.1649851336        0.4987408748        0.1998898408
Re            0.6651432021        0.5003453547        0.2015506672
Re           -0.0006577139        0.6667090543        0.2006482330
Re            0.5003453547        0.6651432021        0.2015506672
Re            0.3314780837        0.8318549938        0.2010264195
Re            0.8326895276        0.8326895276        0.2003315202
Re            0.0005557282        0.0005557282        0.2951707916
Re            0.4998625878       -0.0004665103        0.2960373334
Re            0.3303275130        0.1648003119        0.2973378919
Re            0.8335015286        0.1666096850        0.2963339937
Re            0.1648003119        0.3303275130        0.2973378919
Re            0.6667575300        0.3344044395        0.2967946260
Re           -0.0004665103        0.4998625878        0.2960373334
Re            0.4978510236        0.4978510236        0.3062036771
Re            0.3344044395        0.6667575300        0.2967946260
Re            0.8319543174        0.6660744660        0.2977199056
Re            0.1666096850        0.8335015286        0.2963339937
Re            0.6660744660        0.8319543174        0.2977199056
B             0.0026420030        0.0026420030        0.4025238586
B             0.1737106309       -0.0035367290        0.3756752214
B             0.3384295381        0.0083550248        0.4303856615
B             0.5005324832        0.0002628909        0.4050938572
B             0.6793832307        0.0091292572        0.3747779763
B             0.8307735879       -0.0097205190        0.4273313165
B            -0.0035367290        0.1737106309        0.3756752214
B             0.1799998072        0.1799998072        0.3809365334
B             0.3391194014        0.1707155273        0.4090329981
B             0.4987092430        0.1574300040        0.3683164400
B             0.6614535842        0.1737359955        0.4302523194
B             0.8321088138        0.1676816772        0.4141506217
B             0.0083550248        0.3384295381        0.4303856615
B             0.1707155273        0.3391194014        0.4090329981
B             0.4871897072        0.3325022837        0.3767132209
B             0.6584251086        0.3328921112        0.4045115506
B             0.8322875924        0.3219284449        0.3728646931
B             0.0002628909        0.5005324832        0.4050938572
B             0.1574300040        0.4987092430        0.3683164400
B             0.3325022837        0.4871897072        0.3767132209
B             0.6571148051        0.5101236091        0.3826758184
B             0.8336988549        0.5018751463        0.3766607289
B             0.0091292572        0.6793832307        0.3747779763
B             0.1737359955        0.6614535842        0.4302523194
B             0.3328921112        0.6584251086        0.4045115506
B             0.5101236091        0.6571148051        0.3826758184
B             0.8258715152        0.6724426040        0.4035622030
B            -0.0097205190        0.8307735879        0.4273313165
B             0.1676816772        0.8321088138        0.4141506217
B             0.3219284449        0.8322875924        0.3728646931
B             0.5018751463        0.8336988549        0.3766607289
B             0.6724426040        0.8258715152        0.4035622030
B             0.8390060046        0.8390060046        0.3675496049
