&control
 prefix = 'borophene'
 calculation = 'scf'
/

&system
 ibrav = 4
 celldm(1) = 18.074
 celldm(3) = 2.3304
 nat = 81
 ntyp = 2
/

&electrons
/

ATOMIC_SPECIES
 B  10.811  B.pbesol-n-rrkjus_psl.1.0.0.UPF
 Re 186.207 re_pbesol_v1.2.uspp.F.UPF

ATOMIC_POSITIONS (crystal)
Re            0.0000000000        0.0000000000        0.0000000000    0   0   0
Re            0.5000000000        0.0000000000        0.0000000000    0   0   0
Re            0.3333330000        0.1666670000        0.0000000000    0   0   0
Re            0.8333330000        0.1666670000        0.0000000000    0   0   0
Re            0.1666670000        0.3333330000        0.0000000000    0   0   0
Re            0.6666670000        0.3333330000        0.0000000000    0   0   0
Re            0.0000000000        0.5000000000        0.0000000000    0   0   0
Re            0.5000000000        0.5000000000        0.0000000000    0   0   0
Re            0.3333330000        0.6666670000        0.0000000000    0   0   0
Re            0.8333330000        0.6666670000        0.0000000000    0   0   0
Re            0.1666670000        0.8333330000        0.0000000000    0   0   0
Re            0.6666670000        0.8333330000        0.0000000000    0   0   0
Re            0.1666670000        0.0000000000        0.1000000000    0   0   0
Re            0.6666670000        0.0000000000        0.1000000000    0   0   0
Re            0.0000000000        0.1666670000        0.1000000000    0   0   0
Re            0.5000000000        0.1666670000        0.1000000000    0   0   0
Re            0.3333330000        0.3333330000        0.1000000000    0   0   0
Re            0.8333330000        0.3333330000        0.1000000000    0   0   0
Re            0.1666670000        0.5000000000        0.1000000000    0   0   0
Re            0.6666670000        0.5000000000        0.1000000000    0   0   0
Re            0.0000000000        0.6666670000        0.1000000000    0   0   0
Re            0.5000000000        0.6666670000        0.1000000000    0   0   0
Re            0.3333330000        0.8333330000        0.1000000000    0   0   0
Re            0.8333330000        0.8333330000        0.1000000000    0   0   0
Re            0.0001164274        0.0001164274        0.2001470422
Re            0.5018683353        0.0022316864        0.2004836657
Re            0.3345306067        0.1688122162        0.2010751317
Re            0.8330381605        0.1663105961        0.2003292950
Re            0.1688122162        0.3345306067        0.2010751317
Re            0.6683136525        0.3346591983        0.2004980520
Re            0.0022316864        0.5018683353        0.2004836657
Re            0.4991790852        0.4991790852        0.2025448302
Re            0.3346591983        0.6683136525        0.2004980520
Re            0.8328771758        0.6665327574        0.2000493108
Re            0.1663105961        0.8330381605        0.2003292950
Re            0.6665327574        0.8328771758        0.2000493108
Re            0.1676257771       -0.0010999955        0.2938196558
Re            0.6675189672       -0.0016293164        0.2960147889
Re           -0.0010999955        0.1676257771        0.2938196558
Re            0.5010283148        0.1667257360        0.2976657611
Re            0.3346302765        0.3346302765        0.3087901995
Re            0.8352446373        0.3329622540        0.2963100832
Re            0.1667257360        0.5010283148        0.2976657611
Re            0.6646867828        0.5018712822        0.2989397306
Re           -0.0016293164        0.6675189672        0.2960147889
Re            0.5018712822        0.6646867828        0.2989397306
Re            0.3329622540        0.8352446373        0.2963100832
Re            0.8311683363        0.8311683363        0.2963624656
B            -0.0078934488       -0.0078934488        0.3676466473
B             0.1678512675        0.0032986690        0.4073521607
B             0.3388294185       -0.0029911798        0.3789743595
B             0.5191604752        0.0094680952        0.3721496189
B             0.6685249558       -0.0044366478        0.4097428528
B             0.8458595054        0.0018421224        0.4297719964
B             0.0032986690        0.1678512675        0.4073521607
B             0.1648456316        0.1648456316        0.3756437231
B             0.3421753581        0.1756338191        0.3853484733
B             0.5143905372        0.1817270820        0.4067795767
B             0.6686891417        0.1654299222        0.4316427821
B             0.8210781575        0.1567368853        0.3721138902
B            -0.0029911798        0.3388294185        0.3789743595
B             0.1756338191        0.3421753581        0.3853484733
B             0.5122265898        0.3532577645        0.3789780612
B             0.6797085168        0.3368719806        0.3664013742
B             0.8300976731        0.3433840648        0.4091146361
B             0.0094680952        0.5191604752        0.3721496189
B             0.1817270820        0.5143905372        0.4067795767
B             0.3532577645        0.5122265898        0.3789780612
B             0.6449868582        0.5343188744        0.4100246258
B             0.8037779513        0.5061237966        0.4246951553
B            -0.0044366478        0.6685249558        0.4097428528
B             0.1654299222        0.6686891417        0.4316427821
B             0.3368719806        0.6797085168        0.3664013742
B             0.5343188744        0.6449868582        0.4100246258
B             0.8270253007        0.6638731679        0.3734493882
B             0.0018421224        0.8458595054        0.4297719964
B             0.1567368853        0.8210781575        0.3721138902
B             0.3433840648        0.8300976731        0.4091146361
B             0.5061237966        0.8037779513        0.4246951553
B             0.6638731679        0.8270253007        0.3734493882
B             0.8322309503        0.8322309503        0.4016701984
