&control
 prefix = 'borophene'
 calculation = 'scf'
/

&system
 ibrav = 4
 celldm(1) = 18.074
 celldm(3) = 2.3304
 nat = 80
 ntyp = 2
/

&electrons
/

ATOMIC_SPECIES
 B  10.811  B.pbesol-n-rrkjus_psl.1.0.0.UPF
 Re 186.207 re_pbesol_v1.2.uspp.F.UPF

ATOMIC_POSITIONS (crystal)
Re            0.1666670000        0.0000000000        0.0000000000    0   0   0
Re            0.6666670000        0.0000000000        0.0000000000    0   0   0
Re            0.0000000000        0.1666670000        0.0000000000    0   0   0
Re            0.5000000000        0.1666670000        0.0000000000    0   0   0
Re            0.3333330000        0.3333330000        0.0000000000    0   0   0
Re            0.8333330000        0.3333330000        0.0000000000    0   0   0
Re            0.1666670000        0.5000000000        0.0000000000    0   0   0
Re            0.6666670000        0.5000000000        0.0000000000    0   0   0
Re            0.0000000000        0.6666670000        0.0000000000    0   0   0
Re            0.5000000000        0.6666670000        0.0000000000    0   0   0
Re            0.3333330000        0.8333330000        0.0000000000    0   0   0
Re            0.8333330000        0.8333330000        0.0000000000    0   0   0
Re            0.0000000000        0.0000000000        0.1000000000    0   0   0
Re            0.5000000000        0.0000000000        0.1000000000    0   0   0
Re            0.3333330000        0.1666670000        0.1000000000    0   0   0
Re            0.8333330000        0.1666670000        0.1000000000    0   0   0
Re            0.1666670000        0.3333330000        0.1000000000    0   0   0
Re            0.6666670000        0.3333330000        0.1000000000    0   0   0
Re            0.0000000000        0.5000000000        0.1000000000    0   0   0
Re            0.5000000000        0.5000000000        0.1000000000    0   0   0
Re            0.3333330000        0.6666670000        0.1000000000    0   0   0
Re            0.8333330000        0.6666670000        0.1000000000    0   0   0
Re            0.1666670000        0.8333330000        0.1000000000    0   0   0
Re            0.6666670000        0.8333330000        0.1000000000    0   0   0
Re            0.1669840120       -0.0010710263        0.2003305942
Re            0.6680550383        0.0010710263        0.2003305942
Re           -0.0010710263        0.1669840120        0.2003305942
Re            0.5000000000        0.1658053482        0.2001923067
Re            0.3335699407        0.3335699407        0.2018168967
Re            0.8330159880        0.3319449617        0.2003305942
Re            0.1658053482        0.5000000000        0.2001923067
Re            0.6664300593        0.5000000000        0.2018168967
Re            0.0010710263        0.6680550383        0.2003305942
Re            0.5000000000        0.6664300593        0.2018168967
Re            0.3319449617        0.8330159880        0.2003305942
Re            0.8341946518        0.8341946518        0.2001923067
Re            0.0007862555        0.0007862555        0.2948758823
Re            0.5000000000       -0.0007862555        0.2948758823
Re            0.3332182113        0.1679079818        0.2983448307
Re            0.8333330000        0.1666670000        0.2961002530
Re            0.1679079818        0.3332182113        0.2983448307
Re            0.6667817887        0.3346887706        0.2983448307
Re           -0.0007862555        0.5000000000        0.2948758823
Re            0.5000000000        0.5000000000        0.3011451354
Re            0.3346887706        0.6667817887        0.2983448307
Re            0.8320920182        0.6653112294        0.2983448307
Re            0.1666670000        0.8333330000        0.2961002530
Re            0.6653112294        0.8320920182        0.2983448307
B             0.0044933753        0.0044933753        0.4030599592
B             0.1735779929       -0.0023902573        0.3745045026
B             0.3401380108        0.0101677379        0.4272436189
B             0.5000000000       -0.0044933753        0.4030599592
B             0.6759682502        0.0023902573        0.3745045026
B             0.8299702729       -0.0101677379        0.4272436189
B            -0.0023902573        0.1735779929        0.3745045026
B             0.1829646890        0.1829646890        0.3827743610
B             0.3461407538        0.1773284804        0.4063696973
B             0.5000000000        0.1572938931        0.3679262403
B             0.6598619892        0.1700297271        0.4272436189
B             0.8333330000        0.1666670000        0.4122598468
B             0.0101677379        0.3401380108        0.4272436189
B             0.1773284804        0.3461407538        0.4063696973
B             0.5000000000        0.3458403542        0.3729994637
B             0.6538592462        0.3311867266        0.4063696973
B             0.8264220071        0.3240317498        0.3745045026
B            -0.0044933753        0.5000000000        0.4030599592
B             0.1572938931        0.5000000000        0.3679262403
B             0.3458403542        0.5000000000        0.3729994637
B             0.8170353110        0.5000000000        0.3827743610
B             0.0023902573        0.6759682502        0.3745045026
B             0.1700297271        0.6598619892        0.4272436189
B             0.3311867266        0.6538592462        0.4063696973
B             0.6541596458        0.6541596458        0.3729994637
B             0.8226715196        0.6688132734        0.4063696973
B            -0.0101677379        0.8299702729        0.4272436189
B             0.1666670000        0.8333330000        0.4122598468
B             0.3240317498        0.8264220071        0.3745045026
B             0.5000000000        0.8170353110        0.3827743610
B             0.6688132734        0.8226715196        0.4063696973
B             0.8427061069        0.8427061069        0.3679262403
