&control
 prefix = 'borophene'
 calculation = 'scf'
/

&system
 ibrav = 4
 celldm(1) = 18.074
 celldm(3) = 2.3304
 nat = 80
 ntyp = 2
/

&electrons
/

ATOMIC_SPECIES
 B  10.811  B.pbesol-n-rrkjus_psl.1.0.0.UPF
 Re 186.207 re_pbesol_v1.2.uspp.F.UPF

ATOMIC_POSITIONS (crystal)
Re            0.0000000000        0.0000000000        0.0000000000    0   0   0
Re            0.5000000000        0.0000000000        0.0000000000    0   0   0
Re            0.3333330000        0.1666670000        0.0000000000    0   0   0
Re            0.8333330000        0.1666670000        0.0000000000    0   0   0
Re            0.1666670000        0.3333330000        0.0000000000    0   0   0
Re            0.6666670000        0.3333330000        0.0000000000    0   0   0
Re            0.0000000000        0.5000000000        0.0000000000    0   0   0
Re            0.5000000000        0.5000000000        0.0000000000    0   0   0
Re            0.3333330000        0.6666670000        0.0000000000    0   0   0
Re            0.8333330000        0.6666670000        0.0000000000    0   0   0
Re            0.1666670000        0.8333330000        0.0000000000    0   0   0
Re            0.6666670000        0.8333330000        0.0000000000    0   0   0
Re            0.1666670000        0.0000000000        0.1000000000    0   0   0
Re            0.6666670000        0.0000000000        0.1000000000    0   0   0
Re            0.0000000000        0.1666670000        0.1000000000    0   0   0
Re            0.5000000000        0.1666670000        0.1000000000    0   0   0
Re            0.3333330000        0.3333330000        0.1000000000    0   0   0
Re            0.8333330000        0.3333330000        0.1000000000    0   0   0
Re            0.1666670000        0.5000000000        0.1000000000    0   0   0
Re            0.6666670000        0.5000000000        0.1000000000    0   0   0
Re            0.0000000000        0.6666670000        0.1000000000    0   0   0
Re            0.5000000000        0.6666670000        0.1000000000    0   0   0
Re            0.3333330000        0.8333330000        0.1000000000    0   0   0
Re            0.8333330000        0.8333330000        0.1000000000    0   0   0
Re           -0.0034942523       -0.0034942523        0.1993886666
Re            0.5000000000        0.0034942523        0.1993886666
Re            0.3337666770        0.1679193208        0.2001979747
Re            0.8333330000        0.1666670000        0.1980638643
Re            0.1679193208        0.3337666770        0.2001979747
Re            0.6662333230        0.3341516437        0.2001979747
Re            0.0034942523        0.5000000000        0.1993886666
Re            0.5000000000        0.5000000000        0.2033508749
Re            0.3341516437        0.6662333230        0.2001979747
Re            0.8320806792        0.6658483563        0.2001979747
Re            0.1666670000        0.8333330000        0.1980638643
Re            0.6658483563        0.8320806792        0.2001979747
Re            0.1656399917       -0.0000402049        0.2935374538
Re            0.6656801966        0.0000402049        0.2935374538
Re           -0.0000402049        0.1656399917        0.2935374538
Re            0.5000000000        0.1696260400        0.2985255394
Re            0.3383446881        0.3383446881        0.3091971551
Re            0.8343600083        0.3343198034        0.2935374538
Re            0.1696260400        0.5000000000        0.2985255394
Re            0.6616553119        0.5000000000        0.3091971551
Re            0.0000402049        0.6656801966        0.2935374538
Re            0.5000000000        0.6616553119        0.3091971551
Re            0.3343198034        0.8343600083        0.2935374538
Re            0.8303739600        0.8303739600        0.2985255394
B            -0.0156801807       -0.0156801807        0.3720125249
B             0.1589387806       -0.0118675127        0.4027958321
B             0.3440455760        0.0187811609        0.4251700290
B             0.5000000000        0.0156801807        0.3720125249
B             0.6708062933        0.0118675127        0.4027958321
B             0.8252644151       -0.0187811609        0.4251700290
B            -0.0118675127        0.1589387806        0.4027958321
B             0.1595096807        0.1595096807        0.3731508019
B             0.3383433870        0.1662143021        0.3752491747
B             0.5000000000        0.2122656525        0.4208990903
B             0.6559544240        0.1747355849        0.4251700290
B             0.8333330000        0.1666670000        0.3597738407
B             0.0187811609        0.3440455760        0.4251700290
B             0.1662143021        0.3383433870        0.3752491747
B             0.5000000000        0.3875353893        0.3891647842
B             0.6616566130        0.3278699151        0.3752491747
B             0.8410612194        0.3291937067        0.4027958321
B             0.0156801807        0.5000000000        0.3720125249
B             0.2122656525        0.5000000000        0.4208990903
B             0.3875353893        0.5000000000        0.3891647842
B             0.8404903193        0.5000000000        0.3731508019
B             0.0118675127        0.6708062933        0.4027958321
B             0.1747355849        0.6559544240        0.4251700290
B             0.3278699151        0.6616566130        0.3752491747
B             0.6124646107        0.6124646107        0.3891647842
B             0.8337856979        0.6721300849        0.3752491747
B            -0.0187811609        0.8252644151        0.4251700290
B             0.1666670000        0.8333330000        0.3597738407
B             0.3291937067        0.8410612194        0.4027958321
B             0.5000000000        0.8404903193        0.3731508019
B             0.6721300849        0.8337856979        0.3752491747
B             0.7877343475        0.7877343475        0.4208990903
