&control
 prefix = 'borophene'
 calculation = 'scf'
/

&system
 ibrav = 4
 celldm(1) = 18.074
 celldm(3) = 2.3304
 nat = 83
 ntyp = 2
/

&electrons
/

ATOMIC_SPECIES
 B  10.811  B.pbesol-n-rrkjus_psl.1.0.0.UPF
 Re 186.207 re_pbesol_v1.2.uspp.F.UPF

ATOMIC_POSITIONS (crystal)
Re            0.1666670000        0.0000000000        0.0000000000    0   0   0
Re            0.6666670000        0.0000000000        0.0000000000    0   0   0
Re            0.0000000000        0.1666670000        0.0000000000    0   0   0
Re            0.5000000000        0.1666670000        0.0000000000    0   0   0
Re            0.3333330000        0.3333330000        0.0000000000    0   0   0
Re            0.8333330000        0.3333330000        0.0000000000    0   0   0
Re            0.1666670000        0.5000000000        0.0000000000    0   0   0
Re            0.6666670000        0.5000000000        0.0000000000    0   0   0
Re            0.0000000000        0.6666670000        0.0000000000    0   0   0
Re            0.5000000000        0.6666670000        0.0000000000    0   0   0
Re            0.3333330000        0.8333330000        0.0000000000    0   0   0
Re            0.8333330000        0.8333330000        0.0000000000    0   0   0
Re            0.0000000000        0.0000000000        0.1000000000    0   0   0
Re            0.5000000000        0.0000000000        0.1000000000    0   0   0
Re            0.3333330000        0.1666670000        0.1000000000    0   0   0
Re            0.8333330000        0.1666670000        0.1000000000    0   0   0
Re            0.1666670000        0.3333330000        0.1000000000    0   0   0
Re            0.6666670000        0.3333330000        0.1000000000    0   0   0
Re            0.0000000000        0.5000000000        0.1000000000    0   0   0
Re            0.5000000000        0.5000000000        0.1000000000    0   0   0
Re            0.3333330000        0.6666670000        0.1000000000    0   0   0
Re            0.8333330000        0.6666670000        0.1000000000    0   0   0
Re            0.1666670000        0.8333330000        0.1000000000    0   0   0
Re            0.6666670000        0.8333330000        0.1000000000    0   0   0
Re            0.1676313225       -0.0012568291        0.2008147072
Re            0.6688881516        0.0012568291        0.2008147072
Re           -0.0012568291        0.1676313225        0.2008147072
Re            0.5000000000        0.1662450478        0.1998583624
Re            0.3363845086        0.3363845086        0.2015184297
Re            0.8323686775        0.3311118484        0.2008147072
Re            0.1662450478        0.5000000000        0.1998583624
Re            0.6636154914        0.5000000000        0.2015184297
Re            0.0012568291        0.6688881516        0.2008147072
Re            0.5000000000        0.6636154914        0.2015184297
Re            0.3311118484        0.8323686775        0.2008147072
Re            0.8337549522        0.8337549522        0.1998583624
Re           -0.0019089102       -0.0019089102        0.2953237636
Re            0.5000000000        0.0019089102        0.2953237636
Re            0.3289151373        0.1643651763        0.2947879165
Re            0.8333330000        0.1666670000        0.3026643242
Re            0.1643651763        0.3289151373        0.2947879165
Re            0.6710848627        0.3354490390        0.2947879165
Re            0.0019089102        0.5000000000        0.2953237636
Re            0.5000000000        0.5000000000        0.3138804497
Re            0.3354490390        0.6710848627        0.2947879165
Re            0.8356348237        0.6645509610        0.2947879165
Re            0.1666670000        0.8333330000        0.3026643242
Re            0.6645509610        0.8356348237        0.2947879165
B            -0.0133123878       -0.0133123878        0.4041980849
B             0.1589311828       -0.0431922795        0.3889804566
B             0.3295602759       -0.0014080856        0.4417479459
B             0.5000000000        0.0133123878        0.4041980849
B             0.7021234623        0.0431922795        0.3889804566
B             0.8309683615        0.0014080856        0.4417479459
B            -0.0431922795        0.1589311828        0.3889804566
B             0.1505333272        0.1505333272        0.3729932252
B             0.3323309005        0.1533660525        0.4033810275
B             0.5000000000        0.1626067093        0.3626815191
B             0.6704397241        0.1690316385        0.4417479459
B             0.8333330000        0.1666670000        0.4676563232
B            -0.0014080856        0.3295602759        0.4417479459
B             0.1533660525        0.3323309005        0.4033810275
B             0.3224516924        0.3224516924        0.3887511601
B             0.5000000000        0.3294619793        0.3841587366
B             0.6676690995        0.3210341520        0.4033810275
B             0.8410688172        0.2978765377        0.3889804566
B             0.0133123878        0.5000000000        0.4041980849
B             0.1626067093        0.5000000000        0.3626815191
B             0.3294619793        0.5000000000        0.3841587366
B             0.6775483076        0.5000000000        0.3887511601
B             0.8494666728        0.5000000000        0.3729932252
B             0.0431922795        0.7021234623        0.3889804566
B             0.1690316385        0.6704397241        0.4417479459
B             0.3210341520        0.6676690995        0.4033810275
B             0.5000000000        0.6775483076        0.3887511601
B             0.6705380207        0.6705380207        0.3841587366
B             0.8466339475        0.6789658480        0.4033810275
B             0.0014080856        0.8309683615        0.4417479459
B             0.1666670000        0.8333330000        0.4676563232
B             0.2978765377        0.8410688172        0.3889804566
B             0.5000000000        0.8494666728        0.3729932252
B             0.6789658480        0.8466339475        0.4033810275
B             0.8373932907        0.8373932907        0.3626815191
