&control
 prefix = 'borophene'
 calculation = 'scf'
/

&system
 ibrav = 4
 celldm(1) = 18.074
 celldm(3) = 2.3304
 nat = 80
 ntyp = 2
/

&electrons
/

ATOMIC_SPECIES
 B  10.811  B.pbesol-n-rrkjus_psl.1.0.0.UPF
 Re 186.207 re_pbesol_v1.2.uspp.F.UPF

ATOMIC_POSITIONS (crystal)
Re            0.1666670000        0.0000000000        0.0000000000    0   0   0
Re            0.6666670000        0.0000000000        0.0000000000    0   0   0
Re            0.0000000000        0.1666670000        0.0000000000    0   0   0
Re            0.5000000000        0.1666670000        0.0000000000    0   0   0
Re            0.3333330000        0.3333330000        0.0000000000    0   0   0
Re            0.8333330000        0.3333330000        0.0000000000    0   0   0
Re            0.1666670000        0.5000000000        0.0000000000    0   0   0
Re            0.6666670000        0.5000000000        0.0000000000    0   0   0
Re            0.0000000000        0.6666670000        0.0000000000    0   0   0
Re            0.5000000000        0.6666670000        0.0000000000    0   0   0
Re            0.3333330000        0.8333330000        0.0000000000    0   0   0
Re            0.8333330000        0.8333330000        0.0000000000    0   0   0
Re            0.0000000000        0.0000000000        0.1000000000    0   0   0
Re            0.5000000000        0.0000000000        0.1000000000    0   0   0
Re            0.3333330000        0.1666670000        0.1000000000    0   0   0
Re            0.8333330000        0.1666670000        0.1000000000    0   0   0
Re            0.1666670000        0.3333330000        0.1000000000    0   0   0
Re            0.6666670000        0.3333330000        0.1000000000    0   0   0
Re            0.0000000000        0.5000000000        0.1000000000    0   0   0
Re            0.5000000000        0.5000000000        0.1000000000    0   0   0
Re            0.3333330000        0.6666670000        0.1000000000    0   0   0
Re            0.8333330000        0.6666670000        0.1000000000    0   0   0
Re            0.1666670000        0.8333330000        0.1000000000    0   0   0
Re            0.6666670000        0.8333330000        0.1000000000    0   0   0
Re            0.1668622812        0.0004896499        0.2005595798
Re            0.6663726314       -0.0004896499        0.2005595798
Re            0.0004896499        0.1668622812        0.2005595798
Re            0.5000000000        0.1655104283        0.2004271570
Re            0.3332250842        0.3332250842        0.2015627193
Re            0.8331377188        0.3336273686        0.2005595798
Re            0.1655104283        0.5000000000        0.2004271570
Re            0.6667749158        0.5000000000        0.2015627193
Re           -0.0004896499        0.6663726314        0.2005595798
Re            0.5000000000        0.6667749158        0.2015627193
Re            0.3336273686        0.8331377188        0.2005595798
Re            0.8344895717        0.8344895717        0.2004271570
Re            0.0009597763        0.0009597763        0.2960544478
Re            0.5000000000       -0.0009597763        0.2960544478
Re            0.3352589035        0.1685040834        0.2968431552
Re            0.8333330000        0.1666670000        0.2951063670
Re            0.1685040834        0.3352589035        0.2968431552
Re            0.6647410965        0.3332441800        0.2968431552
Re           -0.0009597763        0.5000000000        0.2960544478
Re            0.5000000000        0.5000000000        0.3027916856
Re            0.3332441800        0.6647410965        0.2968431552
Re            0.8314959166        0.6667558200        0.2968431552
Re            0.1666670000        0.8333330000        0.2951063670
Re            0.6667558200        0.8314959166        0.2968431552
B             0.0152149712        0.0152149712        0.4065999217
B             0.1709652657        0.0018784882        0.3698564170
B             0.3382525573        0.0044128337        0.4200177956
B             0.5000000000       -0.0152149712        0.4065999217
B             0.6690867774       -0.0018784882        0.3698564170
B             0.8338397236       -0.0044128337        0.4200177956
B             0.0018784882        0.1709652657        0.3698564170
B             0.1941538507        0.1941538507        0.4242117977
B             0.3436743097        0.1729512318        0.4002973771
B             0.5000000000        0.1608760445        0.3738904179
B             0.6617474427        0.1661602764        0.4200177956
B             0.8333330000        0.1666670000        0.4063556232
B             0.0044128337        0.3382525573        0.4200177956
B             0.1729512318        0.3436743097        0.4002973771
B             0.3392941120        0.3392941120        0.3720983743
B             0.6563256903        0.3292759221        0.4002973771
B             0.8290347343        0.3309132226        0.3698564170
B            -0.0152149712        0.5000000000        0.4065999217
B             0.1608760445        0.5000000000        0.3738904179
B             0.6607058880        0.5000000000        0.3720983743
B             0.8058461493        0.5000000000        0.4242117977
B            -0.0018784882        0.6690867774        0.3698564170
B             0.1661602764        0.6617474427        0.4200177956
B             0.3292759221        0.6563256903        0.4002973771
B             0.5000000000        0.6607058880        0.3720983743
B             0.8270487682        0.6707240779        0.4002973771
B            -0.0044128337        0.8338397236        0.4200177956
B             0.1666670000        0.8333330000        0.4063556232
B             0.3309132226        0.8290347343        0.3698564170
B             0.5000000000        0.8058461493        0.4242117977
B             0.6707240779        0.8270487682        0.4002973771
B             0.8391239555        0.8391239555        0.3738904179
