&control
 prefix = 'borophene'
 calculation = 'scf'
/

&system
 ibrav = 4
 celldm(1) = 18.074
 celldm(3) = 2.3304
 nat = 83
 ntyp = 2
/

&electrons
/

ATOMIC_SPECIES
 B  10.811  B.pbesol-n-rrkjus_psl.1.0.0.UPF
 Re 186.207 re_pbesol_v1.2.uspp.F.UPF

ATOMIC_POSITIONS (crystal)
Re            0.0000000000        0.0000000000        0.0000000000    0   0   0
Re            0.5000000000        0.0000000000        0.0000000000    0   0   0
Re            0.3333330000        0.1666670000        0.0000000000    0   0   0
Re            0.8333330000        0.1666670000        0.0000000000    0   0   0
Re            0.1666670000        0.3333330000        0.0000000000    0   0   0
Re            0.6666670000        0.3333330000        0.0000000000    0   0   0
Re            0.0000000000        0.5000000000        0.0000000000    0   0   0
Re            0.5000000000        0.5000000000        0.0000000000    0   0   0
Re            0.3333330000        0.6666670000        0.0000000000    0   0   0
Re            0.8333330000        0.6666670000        0.0000000000    0   0   0
Re            0.1666670000        0.8333330000        0.0000000000    0   0   0
Re            0.6666670000        0.8333330000        0.0000000000    0   0   0
Re            0.1666670000        0.0000000000        0.1000000000    0   0   0
Re            0.6666670000        0.0000000000        0.1000000000    0   0   0
Re            0.0000000000        0.1666670000        0.1000000000    0   0   0
Re            0.5000000000        0.1666670000        0.1000000000    0   0   0
Re            0.3333330000        0.3333330000        0.1000000000    0   0   0
Re            0.8333330000        0.3333330000        0.1000000000    0   0   0
Re            0.1666670000        0.5000000000        0.1000000000    0   0   0
Re            0.6666670000        0.5000000000        0.1000000000    0   0   0
Re            0.0000000000        0.6666670000        0.1000000000    0   0   0
Re            0.5000000000        0.6666670000        0.1000000000    0   0   0
Re            0.3333330000        0.8333330000        0.1000000000    0   0   0
Re            0.8333330000        0.8333330000        0.1000000000    0   0   0
Re            0.0006291926        0.0006291926        0.2013911915
Re            0.5000000000       -0.0006291926        0.2013911915
Re            0.3324730102        0.1659581846        0.2009387671
Re            0.8333330000        0.1666670000        0.2008606105
Re            0.1659581846        0.3324730102        0.2009387671
Re            0.6675269898        0.3334841744        0.2009387671
Re           -0.0006291926        0.5000000000        0.2013911915
Re            0.5000000000        0.5000000000        0.2026348988
Re            0.3334841744        0.6675269898        0.2009387671
Re            0.8340418154        0.6665158256        0.2009387671
Re            0.1666670000        0.8333330000        0.2008606105
Re            0.6665158256        0.8340418154        0.2009387671
Re            0.1661648661       -0.0012320632        0.2971587616
Re            0.6673969293        0.0012320632        0.2971587616
Re           -0.0012320632        0.1661648661        0.2971587616
Re            0.5000000000        0.1677221959        0.2949598812
Re            0.3333761397        0.3333761397        0.2992338167
Re            0.8338351339        0.3326030707        0.2971587616
Re            0.1677221959        0.5000000000        0.2949598812
Re            0.6666238603        0.5000000000        0.2992338167
Re            0.0012320632        0.6673969293        0.2971587616
Re            0.5000000000        0.6666238603        0.2992338167
Re            0.3326030707        0.8338351339        0.2971587616
Re            0.8322778041        0.8322778041        0.2949598812
B            -0.0052313504       -0.0052313504        0.3685720623
B             0.1597314598        0.0011394182        0.4105150404
B             0.3353241439        0.0070056832        0.4231375695
B             0.5000000000        0.0052313504        0.3685720623
B             0.6585920416       -0.0011394182        0.4105150404
B             0.8283184607       -0.0070056832        0.4231375695
B             0.0011394182        0.1597314598        0.4105150404
B             0.1826089447        0.1826089447        0.4327635172
B             0.3203934082        0.1627245597        0.3753135439
B             0.5000000000        0.1702675814        0.4020526130
B             0.6646758561        0.1716815393        0.4231375695
B             0.8333330000        0.1666670000        0.3766110554
B             0.0070056832        0.3353241439        0.4231375695
B             0.1627245597        0.3203934082        0.3753135439
B             0.3421507425        0.3421507425        0.4116178715
B             0.5000000000        0.3445391002        0.3772968392
B             0.6796065918        0.3423301514        0.3753135439
B             0.8402685402        0.3414079584        0.4105150404
B             0.0052313504        0.5000000000        0.3685720623
B             0.1702675814        0.5000000000        0.4020526130
B             0.3445391002        0.5000000000        0.3772968392
B             0.6578492575        0.5000000000        0.4116178715
B             0.8173910553        0.5000000000        0.4327635172
B            -0.0011394182        0.6585920416        0.4105150404
B             0.1716815393        0.6646758561        0.4231375695
B             0.3423301514        0.6796065918        0.3753135439
B             0.5000000000        0.6578492575        0.4116178715
B             0.6554608998        0.6554608998        0.3772968392
B             0.8372754403        0.6576698486        0.3753135439
B            -0.0070056832        0.8283184607        0.4231375695
B             0.1666670000        0.8333330000        0.3766110554
B             0.3414079584        0.8402685402        0.4105150404
B             0.5000000000        0.8173910553        0.4327635172
B             0.6576698486        0.8372754403        0.3753135439
B             0.8297324186        0.8297324186        0.4020526130
