&control
 prefix = 'borophene'
 calculation = 'scf'
/

&system
 ibrav = 4
 celldm(1) = 18.074
 celldm(3) = 2.3304
 nat = 80
 ntyp = 2
/

&electrons
/

ATOMIC_SPECIES
 B  10.811  B.pbesol-n-rrkjus_psl.1.0.0.UPF
 Re 186.207 re_pbesol_v1.2.uspp.F.UPF

ATOMIC_POSITIONS (crystal)
Re            0.0000000000        0.0000000000        0.0000000000    0   0   0
Re            0.5000000000        0.0000000000        0.0000000000    0   0   0
Re            0.3333330000        0.1666670000        0.0000000000    0   0   0
Re            0.8333330000        0.1666670000        0.0000000000    0   0   0
Re            0.1666670000        0.3333330000        0.0000000000    0   0   0
Re            0.6666670000        0.3333330000        0.0000000000    0   0   0
Re            0.0000000000        0.5000000000        0.0000000000    0   0   0
Re            0.5000000000        0.5000000000        0.0000000000    0   0   0
Re            0.3333330000        0.6666670000        0.0000000000    0   0   0
Re            0.8333330000        0.6666670000        0.0000000000    0   0   0
Re            0.1666670000        0.8333330000        0.0000000000    0   0   0
Re            0.6666670000        0.8333330000        0.0000000000    0   0   0
Re            0.1666670000        0.0000000000        0.1000000000    0   0   0
Re            0.6666670000        0.0000000000        0.1000000000    0   0   0
Re            0.0000000000        0.1666670000        0.1000000000    0   0   0
Re            0.5000000000        0.1666670000        0.1000000000    0   0   0
Re            0.3333330000        0.3333330000        0.1000000000    0   0   0
Re            0.8333330000        0.3333330000        0.1000000000    0   0   0
Re            0.1666670000        0.5000000000        0.1000000000    0   0   0
Re            0.6666670000        0.5000000000        0.1000000000    0   0   0
Re            0.0000000000        0.6666670000        0.1000000000    0   0   0
Re            0.5000000000        0.6666670000        0.1000000000    0   0   0
Re            0.3333330000        0.8333330000        0.1000000000    0   0   0
Re            0.8333330000        0.8333330000        0.1000000000    0   0   0
Re            0.0007585515        0.0007585515        0.2012022147
Re            0.5000000000       -0.0007585515        0.2012022147
Re            0.3329621707        0.1657897671        0.2004783580
Re            0.8333330000        0.1666670000        0.2014694546
Re            0.1657897671        0.3329621707        0.2004783580
Re            0.6670378293        0.3328265964        0.2004783580
Re           -0.0007585515        0.5000000000        0.2012022147
Re            0.5000000000        0.5000000000        0.2004976767
Re            0.3328265964        0.6670378293        0.2004783580
Re            0.8342102329        0.6671734036        0.2004783580
Re            0.1666670000        0.8333330000        0.2014694546
Re            0.6671734036        0.8342102329        0.2004783580
Re            0.1696892476        0.0025517994        0.2961426904
Re            0.6671374482       -0.0025517994        0.2961426904
Re            0.0025517994        0.1696892476        0.2961426904
Re            0.5000000000        0.1684453082        0.2968057606
Re            0.3369109121        0.3369109121        0.2966984160
Re            0.8303107524        0.3328625518        0.2961426904
Re            0.1684453082        0.5000000000        0.2968057606
Re            0.6630890879        0.5000000000        0.2966984160
Re           -0.0025517994        0.6671374482        0.2961426904
Re            0.5000000000        0.6630890879        0.2966984160
Re            0.3328625518        0.8303107524        0.2961426904
Re            0.8315546918        0.8315546918        0.2968057606
B            -0.0028819726       -0.0028819726        0.3682719740
B             0.1731476610        0.0160394686        0.4053841973
B             0.3387350823       -0.0027792860        0.4180386038
B             0.5000000000        0.0028819726        0.3682719740
B             0.6571081923       -0.0160394686        0.4053841973
B             0.8415143683        0.0027792860        0.4180386038
B             0.0160394686        0.1731476610        0.4053841973
B             0.2149009603        0.2149009603        0.4231018324
B             0.3459788975        0.1875673370        0.3744852948
B             0.5000000000        0.1667892469        0.4000136073
B             0.6612649177        0.1584856317        0.4180386038
B             0.8333330000        0.1666670000        0.3718785678
B            -0.0027792860        0.3387350823        0.4180386038
B             0.1875673370        0.3459788975        0.3744852948
B             0.3824897421        0.3824897421        0.3986094404
B             0.6540211025        0.3415874395        0.3744852948
B             0.8268523390        0.3428918077        0.4053841973
B             0.0028819726        0.5000000000        0.3682719740
B             0.1667892469        0.5000000000        0.4000136073
B             0.6175102579        0.5000000000        0.3986094404
B             0.7850990397        0.5000000000        0.4231018324
B            -0.0160394686        0.6571081923        0.4053841973
B             0.1584856317        0.6612649177        0.4180386038
B             0.3415874395        0.6540211025        0.3744852948
B             0.5000000000        0.6175102579        0.3986094404
B             0.8124326630        0.6584125605        0.3744852948
B             0.0027792860        0.8415143683        0.4180386038
B             0.1666670000        0.8333330000        0.3718785678
B             0.3428918077        0.8268523390        0.4053841973
B             0.5000000000        0.7850990397        0.4231018324
B             0.6584125605        0.8124326630        0.3744852948
B             0.8332107531        0.8332107531        0.4000136073
