&control
 prefix = 'borophene'
 calculation = 'scf'
/

&system
 ibrav = 4
 celldm(1) = 18.074
 celldm(3) = 2.3304
 nat = 75
 ntyp = 2
/

&electrons
/

ATOMIC_SPECIES
 B  10.811  B.pbesol-n-rrkjus_psl.1.0.0.UPF
 Re 186.207 re_pbesol_v1.2.uspp.F.UPF

ATOMIC_POSITIONS (crystal)
Re            0.0000000000        0.0000000000        0.0000000000    0   0   0
Re            0.5000000000        0.0000000000        0.0000000000    0   0   0
Re            0.3333330000        0.1666670000        0.0000000000    0   0   0
Re            0.8333330000        0.1666670000        0.0000000000    0   0   0
Re            0.1666670000        0.3333330000        0.0000000000    0   0   0
Re            0.6666670000        0.3333330000        0.0000000000    0   0   0
Re            0.0000000000        0.5000000000        0.0000000000    0   0   0
Re            0.5000000000        0.5000000000        0.0000000000    0   0   0
Re            0.3333330000        0.6666670000        0.0000000000    0   0   0
Re            0.8333330000        0.6666670000        0.0000000000    0   0   0
Re            0.1666670000        0.8333330000        0.0000000000    0   0   0
Re            0.6666670000        0.8333330000        0.0000000000    0   0   0
Re            0.1666670000        0.0000000000        0.1000000000    0   0   0
Re            0.6666670000        0.0000000000        0.1000000000    0   0   0
Re            0.0000000000        0.1666670000        0.1000000000    0   0   0
Re            0.5000000000        0.1666670000        0.1000000000    0   0   0
Re            0.3333330000        0.3333330000        0.1000000000    0   0   0
Re            0.8333330000        0.3333330000        0.1000000000    0   0   0
Re            0.1666670000        0.5000000000        0.1000000000    0   0   0
Re            0.6666670000        0.5000000000        0.1000000000    0   0   0
Re            0.0000000000        0.6666670000        0.1000000000    0   0   0
Re            0.5000000000        0.6666670000        0.1000000000    0   0   0
Re            0.3333330000        0.8333330000        0.1000000000    0   0   0
Re            0.8333330000        0.8333330000        0.1000000000    0   0   0
Re           -0.0025064677       -0.0025064677        0.1998504615
Re            0.4986869226        0.0009334182        0.2018725233
Re            0.3347569439        0.1691396742        0.2026983895
Re            0.8314923279        0.1644562342        0.2000346559
Re            0.1691396742        0.3347569439        0.2026983895
Re            0.6643119071        0.3326112623        0.2007560201
Re            0.0009334182        0.4986869226        0.2018725233
Re            0.4989999686        0.4989999686        0.1990802684
Re            0.3326112623        0.6643119071        0.2007560201
Re            0.8306281723        0.6648944751        0.2019507064
Re            0.1644562342        0.8314923279        0.2000346559
Re            0.6648944751        0.8306281723        0.2019507064
Re            0.1678257670       -0.0008819678        0.2939177310
Re            0.6669920324       -0.0013624338        0.2969065866
Re           -0.0008819678        0.1678257670        0.2939177310
Re            0.5006826341        0.1676279384        0.3003100695
Re            0.3400103539        0.3400103539        0.3011326505
Re            0.8269060084        0.3336990259        0.2954037320
Re            0.1676279384        0.5006826341        0.3003100695
Re            0.6626170955        0.4984867399        0.2972152373
Re           -0.0013624338        0.6669920324        0.2969065866
Re            0.4984867399        0.6626170955        0.2972152373
Re            0.3336990259        0.8269060084        0.2954037320
Re            0.8317865101        0.8317865101        0.2968727279
B            -0.0013936166       -0.0013936166        0.3678340184
B             0.1739537832        0.0113032992        0.4043668645
B             0.3343974212        0.0004155786        0.3750650800
B             0.5153572323        0.0141230343        0.3808496812
B             0.6715227957       -0.0058753773        0.4067153184
B             0.8467259545        0.0065182964        0.4280580833
B             0.0113032992        0.1739537832        0.4043668645
B             0.1824537347        0.1824537347        0.3758212437
B             0.3615172198        0.1940462866        0.3828607072
B             0.5235313857        0.1965938771        0.4035074472
B             0.6665951173        0.1649694635        0.4272262201
B             0.8197437524        0.1630442059        0.3685165119
B             0.0004155786        0.3343974212        0.3750650800
B             0.1940462866        0.3615172198        0.3828607072
B             0.8269869357        0.3336171773        0.4000345640
B             0.0141230343        0.5153572323        0.3808496812
B             0.1965938771        0.5235313857        0.4035074472
B             0.8184805106        0.4954106677        0.3744014448
B            -0.0058753773        0.6715227957        0.4067153184
B             0.1649694635        0.6665951173        0.4272262201
B             0.8153492715        0.6651853879        0.3739144473
B             0.0065182964        0.8467259545        0.4280580833
B             0.1630442059        0.8197437524        0.3685165119
B             0.3336171773        0.8269869357        0.4000345640
B             0.4954106677        0.8184805106        0.3744014448
B             0.6651853879        0.8153492715        0.3739144473
B             0.8342988817        0.8342988817        0.4038856068
