&control
 prefix = 'borophene'
 calculation = 'scf'
/

&system
 ibrav = 4
 celldm(1) = 18.074
 celldm(3) = 2.3304
 nat = 75
 ntyp = 2
/

&electrons
/

ATOMIC_SPECIES
 B  10.811  B.pbesol-n-rrkjus_psl.1.0.0.UPF
 Re 186.207 re_pbesol_v1.2.uspp.F.UPF

ATOMIC_POSITIONS (crystal)
Re            0.1666670000        0.0000000000        0.0000000000    0   0   0
Re            0.6666670000        0.0000000000        0.0000000000    0   0   0
Re            0.0000000000        0.1666670000        0.0000000000    0   0   0
Re            0.5000000000        0.1666670000        0.0000000000    0   0   0
Re            0.3333330000        0.3333330000        0.0000000000    0   0   0
Re            0.8333330000        0.3333330000        0.0000000000    0   0   0
Re            0.1666670000        0.5000000000        0.0000000000    0   0   0
Re            0.6666670000        0.5000000000        0.0000000000    0   0   0
Re            0.0000000000        0.6666670000        0.0000000000    0   0   0
Re            0.5000000000        0.6666670000        0.0000000000    0   0   0
Re            0.3333330000        0.8333330000        0.0000000000    0   0   0
Re            0.8333330000        0.8333330000        0.0000000000    0   0   0
Re            0.0000000000        0.0000000000        0.1000000000    0   0   0
Re            0.5000000000        0.0000000000        0.1000000000    0   0   0
Re            0.3333330000        0.1666670000        0.1000000000    0   0   0
Re            0.8333330000        0.1666670000        0.1000000000    0   0   0
Re            0.1666670000        0.3333330000        0.1000000000    0   0   0
Re            0.6666670000        0.3333330000        0.1000000000    0   0   0
Re            0.0000000000        0.5000000000        0.1000000000    0   0   0
Re            0.5000000000        0.5000000000        0.1000000000    0   0   0
Re            0.3333330000        0.6666670000        0.1000000000    0   0   0
Re            0.8333330000        0.6666670000        0.1000000000    0   0   0
Re            0.1666670000        0.8333330000        0.1000000000    0   0   0
Re            0.6666670000        0.8333330000        0.1000000000    0   0   0
Re            0.1666187129        0.0005874936        0.2011163721
Re            0.6674231773       -0.0034465155        0.2003802040
Re            0.0005874936        0.1666187129        0.2011163721
Re            0.4996516238        0.1684632958        0.2011885753
Re            0.3326246402        0.3326246402        0.2000024819
Re            0.8290282785        0.3318786900        0.2015951183
Re            0.1684632958        0.4996516238        0.2011885753
Re            0.6658796765        0.4993100652        0.2011021410
Re           -0.0034465155        0.6674231773        0.2003802040
Re            0.4993100652        0.6658796765        0.2011021410
Re            0.3318786900        0.8290282785        0.2015951183
Re            0.8328880405        0.8328880405        0.1999880129
Re           -0.0017786663       -0.0017786663        0.2943466088
Re            0.5019667847        0.0047905528        0.2909849550
Re            0.3332466993        0.1713341736        0.3006866079
Re            0.8389555835        0.1697695211        0.2938231635
Re            0.1713341736        0.3332466993        0.3006866079
Re            0.6665392361        0.3397224423        0.3085432448
Re            0.0047905528        0.5019667847        0.2909849550
Re            0.4984765921        0.4984765921        0.2912546131
Re            0.3397224423        0.6665392361        0.3085432448
Re            0.8289752404        0.6653074751        0.2996067060
Re            0.1697695211        0.8389555835        0.2938231635
Re            0.6653074751        0.8289752404        0.2996067060
B            -0.0003706939       -0.0003706939        0.4013265304
B             0.1727535037        0.0020130931        0.4321935623
B             0.3194671487        0.0056014295        0.3714680065
B             0.5011095954        0.0042484305        0.3969075947
B             0.6814384573        0.0027218389        0.3695185048
B             0.8293440945        0.0009388736        0.4320387317
B             0.0020130931        0.1727535037        0.4321935623
B             0.1644732946        0.1644732946        0.3735440081
B             0.3284218801        0.1826236459        0.4134072411
B             0.4933694798        0.1972162744        0.3856454643
B             0.6603388498        0.1731136615        0.3803907322
B             0.8333545142        0.1702264503        0.4033163637
B             0.0056014295        0.3194671487        0.3714680065
B             0.1826236459        0.3284218801        0.4134072411
B             0.8364986259        0.3435722792        0.3768733580
B             0.0042484305        0.5011095954        0.3969075947
B             0.1972162744        0.4933694798        0.3856454643
B             0.8105765306        0.5071242013        0.3860321107
B             0.0027218389        0.6814384573        0.3695185048
B             0.1731136615        0.6603388498        0.3803907322
B             0.8284277367        0.6711058383        0.4119822757
B             0.0009388736        0.8293440945        0.4320387317
B             0.1702264503        0.8333545142        0.4033163637
B             0.3435722792        0.8364986259        0.3768733580
B             0.5071242013        0.8105765306        0.3860321107
B             0.6711058383        0.8284277367        0.4119822757
B             0.8311685988        0.8311685988        0.3745369677
