&projwfc

 prefix = 'borophene'
 outdir = '../../outdir'
 filPdos = 'alphapdos.dat'
 !Emin = 
 !Emax = 
 DeltaE = 0.01

/
