&control
    prefix        = 'borophene',
    calculation   = 'bands',
    pseudo_dir    = '../../pseudo',
    outdir        = '../../outdir'
 /
 &system
    ibrav         = 4,
    celldm(1)     = 9.036, !sqrt(3)*2.7608 = 4.7818 A = 9.036 bohr
    celldm(3)     = 3.729, !4.458*4/4.7818 con spacing = 4.458*3 = 13.374 A
    nat           = 14,
    ntyp          = 2,
    ecutwfc       = 60,
    occupations= 'smearing',
    smearing   = 'marzari-vanderbilt',
    degauss = 0.02
 /
 &electrons
 /
ATOMIC_SPECIES
 B  10.811  B.pbesol-n-rrkjus_psl.1.0.0.UPF
 Re 186.207 re_pbesol_v1.2.uspp.F.UPF
ATOMIC_POSITIONS crystal
Re 0.3333330000 0.0000000000 0.0000000000
Re 0.0000000000 0.3333330000 0.0000000000
Re 0.6666670000 0.6666670000 0.0000000000
Re 0.0000000000 0.0000000000 0.1233038414
Re 0.6666670000 0.3333330000 0.1158988185
Re 0.3333330000 0.6666670000 0.1158988185
B  0.3335584670 0.0000000000 0.2200687518
B  0.6788598797 0.0000000000 0.2389424517
B  0.0000000000 0.3335584670 0.2200687518
B  0.3211401203 0.3211401203 0.2389424517
B  0.6666670000 0.3333330000 0.2549381213
B  0.0000000000 0.6788598797 0.2389424517
B  0.3333330000 0.6666670000 0.2549381213
B  0.6664415330 0.6664415330 0.2200687518

 K_POINTS crystal
          50
        0.0000000000    0.0000000000    0.5000000000    1.0
        0.0000000000    0.0277777778    0.5000000000    1.0
        0.0000000000    0.0555555556    0.5000000000    1.0
        0.0000000000    0.0833333333    0.5000000000    1.0
        0.0000000000    0.1111111111    0.5000000000    1.0
        0.0000000000    0.1388888889    0.5000000000    1.0
        0.0000000000    0.1666666667    0.5000000000    1.0
        0.0000000000    0.1944444444    0.5000000000    1.0
        0.0000000000    0.2222222222    0.5000000000    1.0
        0.0000000000    0.2500000000    0.5000000000    1.0
        0.0000000000    0.2777777778    0.5000000000    1.0
        0.0000000000    0.3055555556    0.5000000000    1.0
        0.0000000000    0.3333333333    0.5000000000    1.0
        0.0000000000    0.3611111111    0.5000000000    1.0
        0.0000000000    0.3888888889    0.5000000000    1.0
        0.0000000000    0.4166666667    0.5000000000    1.0
        0.0000000000    0.4444444444    0.5000000000    1.0
        0.0000000000    0.4722222222    0.5000000000    1.0
        0.0000000000    0.5000000000    0.5000000000    1.0
        0.0333330000    0.4833330000    0.5000000000    1.0
        0.0666660000    0.4666660000    0.5000000000    1.0
        0.0999990000    0.4499990000    0.5000000000    1.0
        0.1333320000    0.4333320000    0.5000000000    1.0
        0.1666650000    0.4166650000    0.5000000000    1.0
        0.1999980000    0.3999980000    0.5000000000    1.0
        0.2333310000    0.3833310000    0.5000000000    1.0
        0.2666640000    0.3666640000    0.5000000000    1.0
        0.2999970000    0.3499970000    0.5000000000    1.0
        0.3333300000    0.3333300000    0.5000000000    1.0
        0.3174571429    0.3174571429    0.5000000000    1.0
        0.3015842857    0.3015842857    0.5000000000    1.0
        0.2857114286    0.2857114286    0.5000000000    1.0
        0.2698385714    0.2698385714    0.5000000000    1.0
        0.2539657143    0.2539657143    0.5000000000    1.0
        0.2380928571    0.2380928571    0.5000000000    1.0
        0.2222200000    0.2222200000    0.5000000000    1.0
        0.2063471429    0.2063471429    0.5000000000    1.0
        0.1904742857    0.1904742857    0.5000000000    1.0
        0.1746014286    0.1746014286    0.5000000000    1.0
        0.1587285714    0.1587285714    0.5000000000    1.0
        0.1428557143    0.1428557143    0.5000000000    1.0
        0.1269828571    0.1269828571    0.5000000000    1.0
        0.1111100000    0.1111100000    0.5000000000    1.0
        0.0952371429    0.0952371429    0.5000000000    1.0
        0.0793642857    0.0793642857    0.5000000000    1.0
        0.0634914286    0.0634914286    0.5000000000    1.0
        0.0476185714    0.0476185714    0.5000000000    1.0
        0.0317457143    0.0317457143    0.5000000000    1.0
        0.0158728571    0.0158728571    0.5000000000    1.0
        0.0000000000   -0.0000000000    0.5000000000    1.0
