&bands
    prefix        = 'borophene',
    outdir        = '../../outdir',
    filband = 'alphabands.dat',
    lsym = .true.
/
