&control
    calculation = 'relax',
    !nstep = 0
    prefix = 'borophene',
    outdir = './outdir',
    pseudo_dir = '/leonardo/home/userexternal/efornasi/pseudo'
    etot_conv_thr = 1.0D-4
    forc_conv_thr = 1.0D-3
    restart_mode = 'restart'
    verbosity='high'
    max_seconds = 10800
    /
&system
    ibrav = 4,
    celldm(1) = 18.074, !2*sqrt(3)*2.761 = 9.564 ang = 18.074 bohr
    celldm(3) = 2.3304, !4.458*5/9.564 con vuoto = 4.458*3 = 13.374 A
    nat = 77, !48 di Re + 36 di B - 7 buchi di B
    ntyp = 2,    
    ecutwfc = 70,
    ecutrho = 560,
    occupations= 'smearing',
    smearing   = 'marzari-vanderbilt',
    degauss = 0.03
    /
&electrons
    electron_maxstep = 300
    /
&ions
    /
ATOMIC_SPECIES
 B  10.811  B.pbesol-n-rrkjus_psl.1.0.0.UPF
 Re 186.207 re_pbesol_v1.2.uspp.F.UPF
ATOMIC_POSITIONS crystal
Re 0.166667 0.000000 0.000000 0 0 0
Re 0.666667 0.000000 0.000000 0 0 0
Re 0.500000 0.166667 0.000000 0 0 0
Re 0.000000 0.166667 0.000000 0 0 0
Re 0.333333 0.333333 0.000000 0 0 0
Re 0.833333 0.333333 0.000000 0 0 0
Re 0.166667 0.500000 0.000000 0 0 0
Re 0.666667 0.500000 0.000000 0 0 0
Re 0.500000 0.666667 0.000000 0 0 0
Re 0.000000 0.666667 0.000000 0 0 0
Re 0.333333 0.833333 0.000000 0 0 0
Re 0.833333 0.833333 0.000000 0 0 0
Re 0.333333 0.000000 0.100000 0 0 0
Re 0.833333 0.000000 0.100000 0 0 0
Re 0.333333 0.166667 0.100000 0 0 0
Re 0.666667 0.166667 0.100000 0 0 0
Re 0.500000 0.333333 0.100000 0 0 0
Re 0.000000 0.333333 0.100000 0 0 0
Re 0.333333 0.500000 0.100000 0 0 0
Re 0.833333 0.500000 0.100000 0 0 0
Re 0.166667 0.666667 0.100000 0 0 0
Re 0.666667 0.666667 0.100000 0 0 0
Re 0.500000 0.833333 0.100000 0 0 0
Re 0.000000 0.833333 0.100000 0 0 0
Re 0.166667 0.000000 0.200000
Re 0.666667 0.000000 0.200000
Re 0.500000 0.166667 0.200000
Re 0.000000 0.166667 0.200000
Re 0.333333 0.333333 0.200000
Re 0.833333 0.333333 0.200000
Re 0.166667 0.500000 0.200000
Re 0.666667 0.500000 0.200000
Re 0.500000 0.666667 0.200000
Re 0.000000 0.666667 0.200000
Re 0.333333 0.833333 0.200000
Re 0.833333 0.833333 0.200000
Re 0.333333 0.000000 0.300000
Re 0.833333 0.000000 0.300000
Re 0.166667 0.166667 0.300000
Re 0.666667 0.166667 0.300000
Re 0.500000 0.333333 0.300000
Re 0.000000 0.333333 0.300000
Re 0.333333 0.500000 0.300000
Re 0.833333 0.500000 0.300000
Re 0.166667 0.666667 0.300000
Re 0.666667 0.666667 0.300000
Re 0.500000 0.833333 0.300000
Re 0.000000 0.833333 0.300000
B 0.000000 0.000000 0.400000
B 0.166667 0.000000 0.400000
B 0.333333 0.000000 0.400000
B 0.500000 0.000000 0.400000
B 0.666667 0.000000 0.400000
B 0.833333 0.000000 0.400000
B 0.000000 0.166667 0.400000
B 0.166667 0.166667 0.400000
B 0.333333 0.166667 0.400000
B 0.500000 0.166667 0.400000
B 0.666667 0.166667 0.400000
B 0.833333 0.166667 0.400000
B 0.000000 0.333333 0.400000
B 0.166667 0.333333 0.400000
B 0.666667 0.333333 0.400000
B 0.833333 0.333333 0.400000
B 0.000000 0.500000 0.400000
B 0.166667 0.500000 0.400000
B 0.833333 0.500000 0.400000
B 0.000000 0.666667 0.400000
B 0.166667 0.666667 0.400000
B 0.333333 0.666667 0.400000
B 0.833333 0.666667 0.400000
B 0.000000 0.833333 0.400000
B 0.166667 0.833333 0.400000
B 0.333333 0.833333 0.400000
B 0.500000 0.833333 0.400000
B 0.666667 0.833333 0.400000
B 0.833333 0.833333 0.400000
K_POINTS automatic
4 4 1 0 0 0
