&control
    prefix        = 'borophene',
    calculation   = 'scf'
    pseudo_dir    = '../pseudo',
    outdir        = '../outdir'
 /
 &system
    ibrav         = 4,
    celldm(1)     = 9.036, !sqrt(3)*2.7608 = 4.7818 A = 9.036 bohr
    celldm(3)     = 3.729, !4.458*4/4.7818 con spacing = 4.458*3 = 13.374 A
    nat           = 14,
    ntyp          = 2,
    ecutwfc       = 50,
    occupations= 'smearing',
    smearing   = 'marzari-vanderbilt',
    degauss = 0.02
 /
 &electrons
 /
ATOMIC_SPECIES
 B  10.811  B.pbesol-n-rrkjus_psl.1.0.0.UPF
 Re 186.207 re_pbesol_v1.2.uspp.F.UPF
ATOMIC_POSITIONS crystal
Re 0.333333 0.000000 0.000000
Re 0.000000 0.333333 0.000000
Re 0.666667 0.666667 0.000000
Re 0.000000 0.000000 0.125000
Re 0.666667 0.333333 0.125000
Re 0.333333 0.666667 0.125000
B 0.333333 0.000000 0.250000
B 0.666667 0.000000 0.250000
B 0.000000 0.333333 0.250000
B 0.333333 0.333333 0.250000
B 0.666667 0.333333 0.250000
B 0.000000 0.666667 0.250000
B 0.333333 0.666667 0.250000
B 0.666667 0.666667 0.250000
K_POINTS automatic
 3 3 1 0 0 0
