&control
    prefix        = 'rhenium',
    calculation   = 'scf',
    pseudo_dir    = '../pseudo',
    outdir        = '../outdir'
 /
  &system
    ibrav         = 4,
    celldm(1)     = 5.217, !2.761 A = 5.217 bohr
    celldm(3)     = 6.459, !4.458*4/2.761 con spacing = 4.458*3 = 13.374 A
    nat           = 2,
    ntyp          = 1,
    ecutwfc       = 50,
    occupations= 'smearing',
    smearing   = 'marzari-vanderbilt',
    degauss = 0.02
 /
 &electrons
 /
ATOMIC_SPECIES
 Re 186.207 re_pbesol_v1.2.uspp.F.UPF
ATOMIC_POSITIONS crystal
 Re 0.000000 0.000000 0.000000
 Re 0.333333 0.666667 0.125000
K_POINTS automatic
 6 6 1 0 0 0
