&control
    prefix        = 'rhenium',
    calculation   = 'scf',
    pseudo_dir    = '../pseudo',
    outdir        = '../outdir'
 /
 &system
    ibrav         = 4,
    celldm(1)     = 5.219,
    celldm(3)     = 1.615,
    nat           = 2,
    ntyp          = 1,
    ecutwfc       = 60,
    occupations= 'smearing',
    smearing   = 'marzari-vanderbilt',
    degauss = 0.03
 /
 &electrons
 /
ATOMIC_SPECIES
 Re 186.207 re_pbesol_v1.2.uspp.F.UPF
ATOMIC_POSITIONS crystal
Re 0.000000 0.000000 0.000000
Re 0.333333 0.666667 0.500000
K_POINTS automatic
 6 6 6 0 0 0
